(set-info :source |printed by MathSAT|)
(declare-fun |.x{674}| () Int)
(declare-fun |.x{1262}| () Int)
(declare-fun |.x{698}| () (Array Int Int))
(declare-fun |.x{1263}| () (Array Int Int))
(declare-fun |.x{676}| () (Array Int Int))
(declare-fun |.x{1264}| () (Array Int Int))
(declare-fun |.x{677}| () (Array Int (Array Int Int)))
(declare-fun |.x{1265}| () (Array Int (Array Int Int)))
(declare-fun |.x{678}| () (Array Int (Array Int Int)))
(declare-fun |.x{1266}| () (Array Int (Array Int Int)))
(declare-fun |.x{679}| () Int)
(declare-fun |.x{1267}| () Int)
(declare-fun |.x{680}| () Int)
(declare-fun |.x{1268}| () Int)
(declare-fun |.x{681}| () (Array Int Int))
(declare-fun |.x{1269}| () (Array Int Int))
(declare-fun |.x{682}| () (Array Int Int))
(declare-fun |.x{1270}| () (Array Int Int))
(declare-fun |.x{683}| () Int)
(declare-fun |.x{1271}| () Int)
(declare-fun |.x{684}| () Int)
(declare-fun |.x{1272}| () Int)
(declare-fun |.x{685}| () Int)
(declare-fun |.x{1273}| () Int)
(declare-fun |.x{709}| () Int)
(declare-fun |.x{1274}| () Int)
(declare-fun |.x{687}| () Int)
(declare-fun |.x{1275}| () Int)
(declare-fun |.x{688}| () Int)
(declare-fun |.x{1276}| () Int)
(declare-fun |.x{689}| () Int)
(declare-fun |.x{1277}| () Int)
(declare-fun |.x{690}| () Int)
(declare-fun |.x{1278}| () Int)
(declare-fun |.x{691}| () Int)
(declare-fun |.x{1279}| () Int)
(declare-fun |.x{692}| () Int)
(declare-fun |.x{1280}| () Int)
(declare-fun |.x{716}| () Int)
(declare-fun |.x{1281}| () Int)
(declare-fun |.x{694}| () Int)
(declare-fun |.x{1282}| () Int)
(declare-fun |.x{695}| () Int)
(declare-fun |.x{1283}| () Int)
(declare-fun |.x{696}| () Bool)
(declare-fun |.x{1284}| () Bool)
(declare-fun |.loc{5}| () Bool)
(declare-fun |.loc{9}| () Bool)
(declare-fun |.loc{6}| () Bool)
(declare-fun |.loc{10}| () Bool)
(declare-fun |.loc{7}| () Bool)
(declare-fun |.loc{11}| () Bool)
(declare-fun |.loc{8}| () Bool)
(declare-fun |.loc{12}| () Bool)
(declare-fun |.x{91}| () (Array Int Int))
(define-fun .def_56 () Bool (! |.loc{6}| :next |.loc{10}|))
(define-fun .def_54 () Bool (! |.loc{5}| :next |.loc{9}|))
(define-fun .def_538 () Bool (and .def_54 .def_56))
(define-fun .def_58 () Bool (! |.loc{7}| :next |.loc{11}|))
(define-fun .def_76 () Bool (not .def_58))
(define-fun .def_539 () Bool (and .def_76 .def_538))
(define-fun .def_60 () Bool (! |.loc{8}| :next |.loc{12}|))
(define-fun .def_520 () Bool (not .def_60))
(define-fun .def_540 () Bool (and .def_520 .def_539))
(define-fun .def_28 () Int (! |.x{684}| :next |.x{1272}|))
(define-fun .def_26 () Int (! |.x{683}| :next |.x{1271}|))
(define-fun .def_532 () Bool (= .def_26 .def_28))
(define-fun .def_16 () (Array Int (Array Int Int)) (! |.x{678}| :next |.x{1266}|))
(define-fun .def_14 () (Array Int (Array Int Int)) (! |.x{677}| :next |.x{1265}|))
(define-fun .def_531 () Bool (= .def_14 .def_16))
(define-fun .def_533 () Bool (and .def_531 .def_532))
(define-fun .def_20 () Int (! |.x{680}| :next |.x{1268}|))
(define-fun .def_18 () Int (! |.x{679}| :next |.x{1267}|))
(define-fun .def_530 () Bool (= .def_18 .def_20))
(define-fun .def_534 () Bool (and .def_530 .def_533))
(define-fun .def_24 () (Array Int Int) (! |.x{682}| :next |.x{1270}|))
(define-fun .def_22 () (Array Int Int) (! |.x{681}| :next |.x{1269}|))
(define-fun .def_529 () Bool (= .def_22 .def_24))
(define-fun .def_535 () Bool (and .def_529 .def_534))
(define-fun .def_52 () Bool (! |.x{696}| :next |.x{1284}|))
(define-fun .def_528 () Bool (not .def_52))
(define-fun .def_536 () Bool (and .def_528 .def_535))
(define-fun .def_12 () (Array Int Int) (! |.x{676}| :next |.x{1264}|))
(define-fun .def_10 () (Array Int Int) (! |.x{698}| :next |.x{1263}|))
(define-fun .def_527 () Bool (= .def_10 .def_12))
(define-fun .def_537 () Bool (and .def_527 .def_536))
(define-fun .def_541 () Bool (! (and .def_537 .def_540) :init true))
(define-fun .def_524 () Bool (= .def_28 |.x{1272}|))
(define-fun .def_522 () Bool (= .def_24 |.x{1270}|))
(define-fun .def_518 () Bool (= .def_20 |.x{1268}|))
(define-fun .def_516 () Bool (= .def_16 |.x{1266}|))
(define-fun .def_8 () Int (! |.x{674}| :next |.x{1262}|))
(define-fun .def_514 () Bool (= .def_8 |.x{1262}|))
(define-fun .def_513 () Bool (= .def_12 |.x{1264}|))
(define-fun .def_515 () Bool (and .def_513 .def_514))
(define-fun .def_517 () Bool (and .def_515 .def_516))
(define-fun .def_519 () Bool (and .def_517 .def_518))
(define-fun .def_521 () Bool (and .def_519 .def_520))
(define-fun .def_523 () Bool (and .def_521 .def_522))
(define-fun .def_525 () Bool (and .def_523 .def_524))
(define-fun .def_38 () Int (! |.x{689}| :next |.x{1277}|))
(define-fun .def_510 () Bool (= .def_38 |.x{1277}|))
(define-fun .def_508 () Bool (= .def_26 |.x{1271}|))
(define-fun .def_506 () Bool (= .def_22 |.x{1269}|))
(define-fun .def_504 () Bool (= .def_18 |.x{1267}|))
(define-fun .def_477 () Bool (= |.x{1273}| |.x{1277}|))
(define-fun .def_478 () Bool (or |.x{1284}| .def_477))
(define-fun .def_32 () Int (! |.x{709}| :next |.x{1274}|))
(define-fun .def_468 () (Array Int Int) (store .def_10 .def_32 0))
(define-fun .def_469 () Bool (= |.x{1263}| .def_468))
(define-fun .def_470 () Bool (or .def_52 .def_469))
(define-fun .def_471 () Bool (and .def_54 .def_470))
(define-fun .def_36 () Int (! |.x{688}| :next |.x{1276}|))
(define-fun .def_72 () Bool (= .def_36 |.x{1276}|))
(define-fun .def_472 () Bool (and .def_72 .def_471))
(define-fun .def_473 () Bool (and .def_72 .def_472))
(define-fun .def_40 () Int (! |.x{690}| :next |.x{1278}|))
(define-fun .def_131 () Bool (= .def_40 |.x{1278}|))
(define-fun .def_474 () Bool (and .def_131 .def_473))
(define-fun .def_48 () Int (! |.x{694}| :next |.x{1282}|))
(define-fun .def_102 () Bool (= .def_48 |.x{1282}|))
(define-fun .def_475 () Bool (and .def_102 .def_474))
(define-fun .def_104 () Bool (= .def_52 |.x{1284}|))
(define-fun .def_476 () Bool (and .def_104 .def_475))
(define-fun .def_479 () Bool (and .def_476 .def_478))
(define-fun .def_181 () Real (* (/ 1 4294967296) (to_real |.x{1275}|)))
(define-fun .def_182 () Int (to_int .def_181))
(define-fun .def_184 () Int (* 4294967296 .def_182))
(define-fun .def_186 () Int (* (- 1) .def_184))
(define-fun .def_187 () Int (+ |.x{1275}| .def_186))
(define-fun .def_188 () Int (+ (- 4294967296) .def_187))
(define-fun .def_190 () Int (* (- 4294967296) .def_182))
(define-fun .def_191 () Int (+ |.x{1275}| .def_190))
(define-fun .def_192 () Bool (<= .def_191 2147483647))
(define-fun .def_193 () Int (ite .def_192 .def_187 .def_188))
(define-fun .def_195 () Int (* 4 .def_193))
(define-fun .def_196 () Int (+ |.x{1281}| .def_195))
(define-fun .def_197 () (Array Int Int) (select |.x{1265}| |.x{1274}|))
(define-fun .def_198 () Int (select .def_197 .def_196))
(define-fun .def_250 () Bool (= |.x{1278}| .def_198))
(define-fun .def_242 () Real (* (/ 1 4294967296) (to_real |.x{1278}|)))
(define-fun .def_243 () Int (to_int .def_242))
(define-fun .def_244 () Int (* (- 4294967296) .def_243))
(define-fun .def_245 () Int (+ |.x{1278}| .def_244))
(define-fun .def_246 () Bool (= .def_245 0))
(define-fun .def_247 () Int (ite .def_246 1 0))
(define-fun .def_248 () Bool (= |.x{1282}| .def_247))
(define-fun .def_201 () Bool (= |.x{1276}| |.x{1282}|))
(define-fun .def_249 () Bool (and .def_201 .def_248))
(define-fun .def_251 () Bool (and .def_249 .def_250))
(define-fun .def_204 () Real (* (/ 1 2) (to_real |.x{1275}|)))
(define-fun .def_205 () Int (to_int .def_204))
(define-fun .def_207 () Int (* 2 .def_205))
(define-fun .def_208 () Int (* (- 1) .def_207))
(define-fun .def_209 () Int (+ |.x{1275}| .def_208))
(define-fun .def_211 () Int (+ .def_209 (- 2)))
(define-fun .def_216 () Bool (<= 0 .def_191))
(define-fun .def_217 () Bool (not .def_216))
(define-fun .def_212 () Int (* (- 2) .def_205))
(define-fun .def_213 () Int (+ |.x{1275}| .def_212))
(define-fun .def_214 () Bool (= .def_213 0))
(define-fun .def_215 () Bool (not .def_214))
(define-fun .def_218 () Bool (and .def_215 .def_217))
(define-fun .def_219 () Int (ite .def_218 .def_211 .def_209))
(define-fun .def_220 () Real (* (/ 1 4294967296) (to_real .def_219)))
(define-fun .def_221 () Int (to_int .def_220))
(define-fun .def_222 () Int (* (- 4294967296) .def_221))
(define-fun .def_223 () Int (+ .def_219 .def_222))
(define-fun .def_224 () Bool (= .def_223 0))
(define-fun .def_252 () Bool (and .def_224 .def_251))
(define-fun .def_461 () Bool (or .def_52 .def_252))
(define-fun .def_165 () Bool (= |.x{1276}| 0))
(define-fun .def_450 () Bool (or .def_52 .def_165))
(define-fun .def_114 () Bool (not .def_54))
(define-fun .def_451 () Bool (and .def_114 .def_450))
(define-fun .def_452 () Bool (and |.x{1284}| .def_451))
(define-fun .def_462 () Bool (and .def_452 .def_461))
(define-fun .def_46 () Int (! |.x{716}| :next |.x{1281}|))
(define-fun .def_124 () Bool (= .def_46 |.x{1281}|))
(define-fun .def_463 () Bool (and .def_124 .def_462))
(define-fun .def_128 () Bool (= .def_32 |.x{1274}|))
(define-fun .def_464 () Bool (and .def_128 .def_463))
(define-fun .def_30 () Int (! |.x{685}| :next |.x{1273}|))
(define-fun .def_74 () Bool (= .def_30 |.x{1273}|))
(define-fun .def_465 () Bool (and .def_74 .def_464))
(define-fun .def_133 () Bool (= .def_10 |.x{1263}|))
(define-fun .def_466 () Bool (and .def_133 .def_465))
(define-fun .def_34 () Int (! |.x{687}| :next |.x{1275}|))
(define-fun .def_140 () Real (* (/ 1 4294967296) (to_real .def_34)))
(define-fun .def_141 () Int (to_int .def_140))
(define-fun .def_143 () Int (* (- 4294967296) .def_141))
(define-fun .def_144 () Int (+ .def_34 .def_143))
(define-fun .def_146 () Bool (<= 1000 .def_144))
(define-fun .def_147 () Bool (not .def_146))
(define-fun .def_148 () Bool (or .def_52 .def_147))
(define-fun .def_467 () Bool (and .def_148 .def_466))
(define-fun .def_480 () Bool (or .def_467 .def_479))
(define-fun .def_50 () Int (! |.x{695}| :next |.x{1283}|))
(define-fun .def_162 () Bool (= .def_50 |.x{1283}|))
(define-fun .def_481 () Bool (and .def_162 .def_480))
(define-fun .def_225 () Bool (not .def_224))
(define-fun .def_199 () Bool (= |.x{1283}| .def_198))
(define-fun .def_173 () Real (* (/ 1 4294967296) (to_real |.x{1283}|)))
(define-fun .def_174 () Int (to_int .def_173))
(define-fun .def_175 () Int (* (- 4294967296) .def_174))
(define-fun .def_176 () Int (+ |.x{1283}| .def_175))
(define-fun .def_177 () Bool (= .def_176 0))
(define-fun .def_178 () Bool (not .def_177))
(define-fun .def_179 () Int (ite .def_178 1 0))
(define-fun .def_180 () Bool (= |.x{1282}| .def_179))
(define-fun .def_200 () Bool (and .def_180 .def_199))
(define-fun .def_202 () Bool (and .def_200 .def_201))
(define-fun .def_226 () Bool (and .def_202 .def_225))
(define-fun .def_459 () Bool (or .def_52 .def_226))
(define-fun .def_453 () Bool (and .def_124 .def_452))
(define-fun .def_454 () Bool (and .def_128 .def_453))
(define-fun .def_455 () Bool (and .def_74 .def_454))
(define-fun .def_456 () Bool (and .def_131 .def_455))
(define-fun .def_457 () Bool (and .def_133 .def_456))
(define-fun .def_458 () Bool (and .def_148 .def_457))
(define-fun .def_460 () Bool (and .def_458 .def_459))
(define-fun .def_482 () Bool (or .def_460 .def_481))
(define-fun .def_483 () Bool (and |.loc{12}| .def_482))
(define-fun .def_68 () Bool (not |.loc{9}|))
(define-fun .def_484 () Bool (and .def_68 .def_483))
(define-fun .def_70 () Bool (not |.loc{10}|))
(define-fun .def_485 () Bool (and .def_70 .def_484))
(define-fun .def_126 () Bool (not |.loc{11}|))
(define-fun .def_486 () Bool (and .def_126 .def_485))
(define-fun .def_62 () Bool (not |.loc{12}|))
(define-fun .def_343 () Bool (and .def_62 .def_114))
(define-fun .def_437 () Bool (and |.loc{9}| .def_343))
(define-fun .def_438 () Bool (and |.loc{10}| .def_437))
(define-fun .def_439 () Bool (and |.loc{11}| .def_438))
(define-fun .def_440 () Bool (and .def_72 .def_439))
(define-fun .def_441 () Bool (and .def_124 .def_440))
(define-fun .def_442 () Bool (and .def_128 .def_441))
(define-fun .def_443 () Bool (and .def_74 .def_442))
(define-fun .def_444 () Bool (and .def_131 .def_443))
(define-fun .def_445 () Bool (and .def_133 .def_444))
(define-fun .def_446 () Bool (and .def_102 .def_445))
(define-fun .def_447 () Bool (and .def_162 .def_446))
(define-fun .def_448 () Bool (and .def_104 .def_447))
(define-fun .def_449 () Bool (and .def_52 .def_448))
(define-fun .def_487 () Bool (or .def_449 .def_486))
(define-fun .def_324 () Bool (or .def_52 .def_146))
(define-fun .def_325 () Bool (and .def_114 .def_324))
(define-fun .def_326 () Bool (and .def_62 .def_325))
(define-fun .def_425 () Bool (and |.loc{9}| .def_326))
(define-fun .def_426 () Bool (and |.loc{10}| .def_425))
(define-fun .def_427 () Bool (and |.loc{11}| .def_426))
(define-fun .def_428 () Bool (and .def_72 .def_427))
(define-fun .def_429 () Bool (and .def_124 .def_428))
(define-fun .def_430 () Bool (and .def_128 .def_429))
(define-fun .def_431 () Bool (and .def_74 .def_430))
(define-fun .def_432 () Bool (and .def_131 .def_431))
(define-fun .def_433 () Bool (and .def_133 .def_432))
(define-fun .def_434 () Bool (and .def_102 .def_433))
(define-fun .def_435 () Bool (and .def_162 .def_434))
(define-fun .def_436 () Bool (and .def_104 .def_435))
(define-fun .def_488 () Bool (or .def_436 .def_487))
(define-fun .def_120 () Bool (= .def_34 |.x{1275}|))
(define-fun .def_424 () Bool (and .def_58 .def_120))
(define-fun .def_489 () Bool (and .def_424 .def_488))
(define-fun .def_42 () Int (! |.x{691}| :next |.x{1279}|))
(define-fun .def_135 () Bool (= .def_42 |.x{1279}|))
(define-fun .def_490 () Bool (and .def_135 .def_489))
(define-fun .def_272 () Int (* (- 1) |.x{1275}|))
(define-fun .def_273 () Int (+ .def_34 .def_272))
(define-fun .def_274 () Bool (= .def_273 (- 1)))
(define-fun .def_422 () Bool (or .def_52 .def_274))
(define-fun .def_409 () Bool (and |.loc{10}| .def_343))
(define-fun .def_410 () Bool (and |.loc{11}| .def_409))
(define-fun .def_411 () Bool (and .def_68 .def_410))
(define-fun .def_412 () Bool (and .def_72 .def_411))
(define-fun .def_413 () Bool (and .def_124 .def_412))
(define-fun .def_414 () Bool (and .def_128 .def_413))
(define-fun .def_415 () Bool (and .def_74 .def_414))
(define-fun .def_416 () Bool (and .def_131 .def_415))
(define-fun .def_417 () Bool (and .def_133 .def_416))
(define-fun .def_418 () Bool (and .def_76 .def_417))
(define-fun .def_419 () Bool (and .def_102 .def_418))
(define-fun .def_420 () Bool (and .def_162 .def_419))
(define-fun .def_421 () Bool (and .def_104 .def_420))
(define-fun .def_423 () Bool (and .def_421 .def_422))
(define-fun .def_491 () Bool (or .def_423 .def_490))
(define-fun .def_492 () Bool (and .def_56 .def_491))
(define-fun .def_96 () Bool (= |.x{1275}| 0))
(define-fun .def_396 () Bool (or .def_52 .def_96))
(define-fun .def_376 () Bool (and .def_54 .def_62))
(define-fun .def_392 () Bool (and .def_58 .def_376))
(define-fun .def_308 () Bool (not .def_56))
(define-fun .def_393 () Bool (and .def_308 .def_392))
(define-fun .def_394 () Bool (and |.loc{10}| .def_393))
(define-fun .def_395 () Bool (and |.loc{11}| .def_394))
(define-fun .def_397 () Bool (and .def_395 .def_396))
(define-fun .def_398 () Bool (and .def_68 .def_397))
(define-fun .def_399 () Bool (and .def_72 .def_398))
(define-fun .def_400 () Bool (and .def_124 .def_399))
(define-fun .def_401 () Bool (and .def_128 .def_400))
(define-fun .def_402 () Bool (and .def_74 .def_401))
(define-fun .def_403 () Bool (and .def_131 .def_402))
(define-fun .def_404 () Bool (and .def_133 .def_403))
(define-fun .def_405 () Bool (and .def_135 .def_404))
(define-fun .def_406 () Bool (and .def_102 .def_405))
(define-fun .def_407 () Bool (and .def_162 .def_406))
(define-fun .def_408 () Bool (and .def_104 .def_407))
(define-fun .def_493 () Bool (or .def_408 .def_492))
(define-fun .def_377 () Bool (and .def_308 .def_376))
(define-fun .def_378 () Bool (and |.loc{10}| .def_377))
(define-fun .def_379 () Bool (and .def_120 .def_378))
(define-fun .def_380 () Bool (and .def_68 .def_379))
(define-fun .def_381 () Bool (and .def_72 .def_380))
(define-fun .def_382 () Bool (and .def_124 .def_381))
(define-fun .def_383 () Bool (and .def_126 .def_382))
(define-fun .def_384 () Bool (and .def_128 .def_383))
(define-fun .def_385 () Bool (and .def_74 .def_384))
(define-fun .def_386 () Bool (and .def_133 .def_385))
(define-fun .def_387 () Bool (and .def_76 .def_386))
(define-fun .def_388 () Bool (and .def_135 .def_387))
(define-fun .def_389 () Bool (and .def_102 .def_388))
(define-fun .def_390 () Bool (and .def_162 .def_389))
(define-fun .def_391 () Bool (and .def_104 .def_390))
(define-fun .def_494 () Bool (or .def_391 .def_493))
(define-fun .def_361 () Bool (and .def_308 .def_343))
(define-fun .def_362 () Bool (and |.loc{10}| .def_361))
(define-fun .def_363 () Bool (and .def_120 .def_362))
(define-fun .def_364 () Bool (and .def_68 .def_363))
(define-fun .def_365 () Bool (and .def_72 .def_364))
(define-fun .def_366 () Bool (and .def_124 .def_365))
(define-fun .def_367 () Bool (and .def_126 .def_366))
(define-fun .def_368 () Bool (and .def_128 .def_367))
(define-fun .def_369 () Bool (and .def_74 .def_368))
(define-fun .def_370 () Bool (and .def_131 .def_369))
(define-fun .def_371 () Bool (and .def_133 .def_370))
(define-fun .def_372 () Bool (and .def_76 .def_371))
(define-fun .def_373 () Bool (and .def_135 .def_372))
(define-fun .def_374 () Bool (and .def_102 .def_373))
(define-fun .def_375 () Bool (and .def_104 .def_374))
(define-fun .def_495 () Bool (or .def_375 .def_494))
(define-fun .def_344 () Bool (and .def_58 .def_343))
(define-fun .def_345 () Bool (and .def_308 .def_344))
(define-fun .def_346 () Bool (and |.loc{9}| .def_345))
(define-fun .def_347 () Bool (and |.loc{11}| .def_346))
(define-fun .def_348 () Bool (and .def_120 .def_347))
(define-fun .def_349 () Bool (and .def_70 .def_348))
(define-fun .def_350 () Bool (and .def_72 .def_349))
(define-fun .def_351 () Bool (and .def_124 .def_350))
(define-fun .def_352 () Bool (and .def_128 .def_351))
(define-fun .def_353 () Bool (and .def_74 .def_352))
(define-fun .def_354 () Bool (and .def_131 .def_353))
(define-fun .def_355 () Bool (and .def_133 .def_354))
(define-fun .def_356 () Bool (and .def_135 .def_355))
(define-fun .def_357 () Bool (and .def_102 .def_356))
(define-fun .def_358 () Bool (and .def_162 .def_357))
(define-fun .def_359 () Bool (and .def_104 .def_358))
(define-fun .def_360 () Bool (and .def_52 .def_359))
(define-fun .def_496 () Bool (or .def_360 .def_495))
(define-fun .def_327 () Bool (and .def_58 .def_326))
(define-fun .def_328 () Bool (and .def_308 .def_327))
(define-fun .def_329 () Bool (and |.loc{9}| .def_328))
(define-fun .def_330 () Bool (and |.loc{11}| .def_329))
(define-fun .def_331 () Bool (and .def_120 .def_330))
(define-fun .def_332 () Bool (and .def_70 .def_331))
(define-fun .def_333 () Bool (and .def_72 .def_332))
(define-fun .def_334 () Bool (and .def_124 .def_333))
(define-fun .def_335 () Bool (and .def_128 .def_334))
(define-fun .def_336 () Bool (and .def_74 .def_335))
(define-fun .def_337 () Bool (and .def_131 .def_336))
(define-fun .def_338 () Bool (and .def_133 .def_337))
(define-fun .def_339 () Bool (and .def_135 .def_338))
(define-fun .def_340 () Bool (and .def_102 .def_339))
(define-fun .def_341 () Bool (and .def_162 .def_340))
(define-fun .def_342 () Bool (and .def_104 .def_341))
(define-fun .def_497 () Bool (or .def_342 .def_496))
(define-fun .def_44 () Int (! |.x{692}| :next |.x{1280}|))
(define-fun .def_137 () Bool (= .def_44 |.x{1280}|))
(define-fun .def_63 () Bool (= .def_14 |.x{1265}|))
(define-fun .def_323 () Bool (and .def_63 .def_137))
(define-fun .def_498 () Bool (and .def_323 .def_497))
(define-fun .def_278 () Real (* (/ 1 2) (to_real .def_34)))
(define-fun .def_279 () Int (to_int .def_278))
(define-fun .def_280 () Int (* 2 .def_279))
(define-fun .def_281 () Int (* (- 1) .def_280))
(define-fun .def_282 () Int (+ .def_34 .def_281))
(define-fun .def_283 () Int (+ (- 2) .def_282))
(define-fun .def_288 () Bool (<= 0 .def_144))
(define-fun .def_289 () Bool (not .def_288))
(define-fun .def_284 () Int (* (- 2) .def_279))
(define-fun .def_285 () Int (+ .def_34 .def_284))
(define-fun .def_286 () Bool (= .def_285 0))
(define-fun .def_287 () Bool (not .def_286))
(define-fun .def_290 () Bool (and .def_287 .def_289))
(define-fun .def_291 () Int (ite .def_290 .def_283 .def_282))
(define-fun .def_292 () Int (* 4294967296 .def_141))
(define-fun .def_293 () Int (* (- 1) .def_292))
(define-fun .def_294 () Int (+ .def_34 .def_293))
(define-fun .def_295 () Int (+ (- 4294967296) .def_294))
(define-fun .def_296 () Bool (<= .def_144 2147483647))
(define-fun .def_297 () Int (ite .def_296 .def_294 .def_295))
(define-fun .def_298 () Int (* 4 .def_297))
(define-fun .def_299 () Int (+ .def_46 .def_298))
(define-fun .def_300 () (Array Int Int) (select .def_14 .def_32))
(define-fun .def_301 () (Array Int Int) (store .def_300 .def_299 .def_291))
(define-fun .def_302 () (Array Int (Array Int Int)) (store .def_14 .def_32 .def_301))
(define-fun .def_303 () Bool (= |.x{1265}| .def_302))
(define-fun .def_304 () Bool (and .def_147 .def_303))
(define-fun .def_305 () Bool (or .def_52 .def_304))
(define-fun .def_275 () Bool (or |.x{1284}| .def_274))
(define-fun .def_276 () Bool (and .def_114 .def_275))
(define-fun .def_277 () Bool (and .def_62 .def_276))
(define-fun .def_306 () Bool (and .def_277 .def_305))
(define-fun .def_307 () Bool (and .def_58 .def_306))
(define-fun .def_309 () Bool (and .def_307 .def_308))
(define-fun .def_310 () Bool (and |.loc{11}| .def_309))
(define-fun .def_311 () Bool (and .def_68 .def_310))
(define-fun .def_312 () Bool (and .def_70 .def_311))
(define-fun .def_313 () Bool (and .def_72 .def_312))
(define-fun .def_314 () Bool (and .def_124 .def_313))
(define-fun .def_315 () Bool (and .def_128 .def_314))
(define-fun .def_316 () Bool (and .def_74 .def_315))
(define-fun .def_317 () Bool (and .def_131 .def_316))
(define-fun .def_318 () Bool (and .def_133 .def_317))
(define-fun .def_319 () Bool (and .def_135 .def_318))
(define-fun .def_320 () Bool (and .def_102 .def_319))
(define-fun .def_321 () Bool (and .def_162 .def_320))
(define-fun .def_322 () Bool (and .def_104 .def_321))
(define-fun .def_499 () Bool (or .def_322 .def_498))
(define-fun .def_253 () Bool (or |.x{1284}| .def_252))
(define-fun .def_166 () Bool (not .def_165))
(define-fun .def_167 () Bool (or |.x{1284}| .def_166))
(define-fun .def_168 () Bool (and .def_114 .def_167))
(define-fun .def_254 () Bool (and .def_168 .def_253))
(define-fun .def_255 () Bool (and .def_62 .def_254))
(define-fun .def_256 () Bool (and .def_63 .def_255))
(define-fun .def_257 () Bool (and .def_56 .def_256))
(define-fun .def_258 () Bool (and .def_58 .def_257))
(define-fun .def_259 () Bool (and |.loc{9}| .def_258))
(define-fun .def_260 () Bool (and .def_120 .def_259))
(define-fun .def_261 () Bool (and .def_70 .def_260))
(define-fun .def_262 () Bool (and .def_124 .def_261))
(define-fun .def_263 () Bool (and .def_126 .def_262))
(define-fun .def_264 () Bool (and .def_128 .def_263))
(define-fun .def_265 () Bool (and .def_74 .def_264))
(define-fun .def_266 () Bool (and .def_133 .def_265))
(define-fun .def_267 () Bool (and .def_135 .def_266))
(define-fun .def_268 () Bool (and .def_137 .def_267))
(define-fun .def_269 () Bool (and .def_148 .def_268))
(define-fun .def_270 () Bool (and .def_162 .def_269))
(define-fun .def_271 () Bool (and .def_104 .def_270))
(define-fun .def_500 () Bool (or .def_271 .def_499))
(define-fun .def_227 () Bool (or |.x{1284}| .def_226))
(define-fun .def_169 () Bool (and .def_62 .def_168))
(define-fun .def_170 () Bool (and .def_63 .def_169))
(define-fun .def_171 () Bool (and .def_56 .def_170))
(define-fun .def_172 () Bool (and .def_58 .def_171))
(define-fun .def_228 () Bool (and .def_172 .def_227))
(define-fun .def_229 () Bool (and .def_120 .def_228))
(define-fun .def_230 () Bool (and .def_68 .def_229))
(define-fun .def_231 () Bool (and .def_70 .def_230))
(define-fun .def_232 () Bool (and .def_124 .def_231))
(define-fun .def_233 () Bool (and .def_126 .def_232))
(define-fun .def_234 () Bool (and .def_128 .def_233))
(define-fun .def_235 () Bool (and .def_74 .def_234))
(define-fun .def_236 () Bool (and .def_131 .def_235))
(define-fun .def_237 () Bool (and .def_133 .def_236))
(define-fun .def_238 () Bool (and .def_135 .def_237))
(define-fun .def_239 () Bool (and .def_137 .def_238))
(define-fun .def_240 () Bool (and .def_148 .def_239))
(define-fun .def_241 () Bool (and .def_104 .def_240))
(define-fun .def_501 () Bool (or .def_241 .def_500))
(define-fun .def_115 () Bool (and |.x{1284}| .def_114))
(define-fun .def_116 () Bool (and .def_62 .def_115))
(define-fun .def_117 () Bool (and .def_63 .def_116))
(define-fun .def_118 () Bool (and .def_56 .def_117))
(define-fun .def_119 () Bool (and .def_58 .def_118))
(define-fun .def_151 () Bool (and |.loc{9}| .def_119))
(define-fun .def_152 () Bool (and .def_120 .def_151))
(define-fun .def_153 () Bool (and .def_70 .def_152))
(define-fun .def_154 () Bool (and .def_124 .def_153))
(define-fun .def_155 () Bool (and .def_126 .def_154))
(define-fun .def_156 () Bool (and .def_128 .def_155))
(define-fun .def_157 () Bool (and .def_74 .def_156))
(define-fun .def_158 () Bool (and .def_133 .def_157))
(define-fun .def_159 () Bool (and .def_135 .def_158))
(define-fun .def_160 () Bool (and .def_137 .def_159))
(define-fun .def_161 () Bool (and .def_148 .def_160))
(define-fun .def_163 () Bool (and .def_161 .def_162))
(define-fun .def_164 () Bool (and .def_52 .def_163))
(define-fun .def_502 () Bool (or .def_164 .def_501))
(define-fun .def_121 () Bool (and .def_119 .def_120))
(define-fun .def_122 () Bool (and .def_68 .def_121))
(define-fun .def_123 () Bool (and .def_70 .def_122))
(define-fun .def_125 () Bool (and .def_123 .def_124))
(define-fun .def_127 () Bool (and .def_125 .def_126))
(define-fun .def_129 () Bool (and .def_127 .def_128))
(define-fun .def_130 () Bool (and .def_74 .def_129))
(define-fun .def_132 () Bool (and .def_130 .def_131))
(define-fun .def_134 () Bool (and .def_132 .def_133))
(define-fun .def_136 () Bool (and .def_134 .def_135))
(define-fun .def_138 () Bool (and .def_136 .def_137))
(define-fun .def_149 () Bool (and .def_138 .def_148))
(define-fun .def_150 () Bool (and .def_52 .def_149))
(define-fun .def_503 () Bool (or .def_150 .def_502))
(define-fun .def_505 () Bool (and .def_503 .def_504))
(define-fun .def_507 () Bool (and .def_505 .def_506))
(define-fun .def_509 () Bool (and .def_507 .def_508))
(define-fun .def_511 () Bool (and .def_509 .def_510))
(define-fun .def_109 () Bool (= |.x{1271}| 0))
(define-fun .def_108 () Bool (= |.x{1267}| 0))
(define-fun .def_110 () Bool (and .def_108 .def_109))
(define-fun .def_106 () (Array Int Int) (store .def_10 0 0))
(define-fun .def_107 () Bool (= |.x{91}| .def_106))
(define-fun .def_111 () Bool (and .def_107 .def_110))
(define-fun .def_112 () Bool (or .def_52 .def_111))
(define-fun .def_91 () (Array Int Int) (store .def_22 |.x{1274}| 4000))
(define-fun .def_92 () Bool (= |.x{1269}| .def_91))
(define-fun .def_88 () Bool (<= |.x{1262}| |.x{1274}|))
(define-fun .def_89 () Bool (not .def_88))
(define-fun .def_93 () Bool (and .def_89 .def_92))
(define-fun .def_86 () Bool (= |.x{1274}| 0))
(define-fun .def_87 () Bool (not .def_86))
(define-fun .def_94 () Bool (and .def_87 .def_93))
(define-fun .def_84 () (Array Int Int) (store |.x{91}| |.x{1274}| 1))
(define-fun .def_85 () Bool (= |.x{1263}| .def_84))
(define-fun .def_95 () Bool (and .def_85 .def_94))
(define-fun .def_97 () Bool (and .def_95 .def_96))
(define-fun .def_82 () Bool (= |.x{1281}| 0))
(define-fun .def_98 () Bool (and .def_82 .def_97))
(define-fun .def_80 () Int (select |.x{91}| |.x{1274}|))
(define-fun .def_81 () Bool (= .def_80 0))
(define-fun .def_99 () Bool (and .def_81 .def_98))
(define-fun .def_100 () Bool (or |.x{1284}| .def_99))
(define-fun .def_64 () Bool (and .def_62 .def_63))
(define-fun .def_65 () Bool (and .def_54 .def_64))
(define-fun .def_66 () Bool (and .def_56 .def_65))
(define-fun .def_67 () Bool (and |.loc{11}| .def_66))
(define-fun .def_69 () Bool (and .def_67 .def_68))
(define-fun .def_71 () Bool (and .def_69 .def_70))
(define-fun .def_73 () Bool (and .def_71 .def_72))
(define-fun .def_75 () Bool (and .def_73 .def_74))
(define-fun .def_77 () Bool (and .def_75 .def_76))
(define-fun .def_101 () Bool (and .def_77 .def_100))
(define-fun .def_103 () Bool (and .def_101 .def_102))
(define-fun .def_105 () Bool (and .def_103 .def_104))
(define-fun .def_113 () Bool (and .def_105 .def_112))
(define-fun .def_512 () Bool (or .def_113 .def_511))
(define-fun .def_526 () Bool (! (and .def_512 .def_525) :trans true))
(define-fun .def_542 () Bool (and .def_114 .def_308))
(define-fun .def_543 () Bool (and .def_76 .def_542))
(define-fun .def_544 () Bool (and .def_60 .def_543))
(define-fun .def_545 () Bool (and .def_52 .def_544))
(define-fun .def_546 () Bool (! (not .def_545) :invar-property 0))
(assert true)
